qbf_easy_train/easy_707_SAT.qdimacs
p cnf 18 38
a 17 10 11 0
e 1 2 3 4 5 6 7 8 9 12 13 14 15 16 18 0
1 -2 -3 0
-1 2 -3 0
1 2 3 0
-1 -2 3 0
-6 4 0
-6 5 0
-4 -5 6 0
-2 -7 0
2 -7 0
8 6 0
8 -7 0
-6 7 -8 0
9 -10 -11 0
-9 10 -11 0
9 10 11 0
-9 -10 11 0
13 11 0
13 -12 0
-11 12 -13 0
-15 -12 0
-15 -14 0
12 14 15 0
13 -15 -16 0
-13 15 -16 0
13 15 16 0
-13 -15 16 0
8 -16 -17 0
-8 16 -17 0
8 16 17 0
-8 -16 17 0
3 17 -18 0
-3 -17 -18 0
3 -17 18 0
-3 17 18 0
4 17 -5 10 11 8 -1 0
-16 7 5 17 -8 -14 0
-5 -9 15 0
18 0
