sat_easy_train/easy_707_SAT.dimacs
p cnf 85 268
-1 2 -3 0
1 -2 -3 0
-1 -2 3 0
1 2 3 0
-6 -4 0
-6 -5 0
4 5 6 0
-9 7 0
-9 8 0
-7 -8 9 0
10 -6 0
10 -9 0
6 9 -10 0
12 10 0
12 11 0
-10 -11 -12 0
-14 13 0
-14 7 0
-13 -7 14 0
14 -8 -15 0
-14 8 -15 0
14 8 15 0
-14 -8 15 0
-16 7 -17 0
16 -7 -17 0
-16 -7 17 0
16 7 17 0
-18 15 0
-18 -17 0
-15 17 18 0
-19 -12 0
-19 18 0
12 -18 19 0
-5 21 -22 0
5 -21 -22 0
-5 -21 22 0
5 21 22 0
-23 -20 0
-23 22 0
20 -22 23 0
19 23 -24 0
-19 -23 -24 0
19 -23 24 0
-19 23 24 0
25 21 0
25 2 0
-21 -2 -25 0
-16 -25 -26 0
16 25 -26 0
-16 25 26 0
16 -25 26 0
27 -9 0
27 26 0
9 -26 -27 0
27 -28 -29 0
-27 28 -29 0
27 28 29 0
-27 -28 29 0
-30 -29 0
-30 22 0
29 -22 30 0
31 4 -32 0
-31 -4 -32 0
31 -4 32 0
-31 4 32 0
26 -27 -33 0
-26 27 -33 0
26 27 33 0
-26 -27 33 0
32 -33 -34 0
-32 33 -34 0
32 33 34 0
-32 -33 34 0
-13 -35 -36 0
13 35 -36 0
-13 35 36 0
13 -35 36 0
-36 37 -38 0
36 -37 -38 0
-36 -37 38 0
36 37 38 0
-39 34 0
-39 -38 0
-34 38 39 0
-40 -30 0
-40 -39 0
30 39 40 0
24 40 -41 0
-24 -40 -41 0
24 -40 41 0
-24 40 41 0
42 -3 0
42 41 0
3 -41 -42 0
25 -16 -43 0
-25 16 -43 0
25 16 43 0
-25 -16 43 0
-44 25 0
-44 20 0
-25 -20 44 0
-45 44 0
-45 -1 0
-44 1 45 0
-46 -28 0
-46 45 0
28 -45 46 0
-31 -7 -47 0
31 7 -47 0
-31 7 47 0
31 -7 47 0
-5 -47 -48 0
5 47 -48 0
-5 47 48 0
5 -47 48 0
-49 48 0
-49 -44 0
-48 44 49 0
-50 -49 0
-50 48 0
49 -48 50 0
51 46 0
51 50 0
-46 -50 -51 0
52 43 0
52 -51 0
-43 51 -52 0
53 -1 0
53 -47 0
1 47 -53 0
55 13 0
55 54 0
-13 -54 -55 0
56 55 0
56 47 0
-55 -47 -56 0
-7 56 -57 0
7 -56 -57 0
-7 -56 57 0
7 56 57 0
58 2 0
58 -57 0
-2 57 -58 0
59 -53 0
59 58 0
53 -58 -59 0
60 -15 0
60 -53 0
15 53 -60 0
-61 25 0
-61 -22 0
-25 22 61 0
62 14 0
62 1 0
-14 -1 -62 0
62 48 -63 0
-62 -48 -63 0
62 -48 63 0
-62 48 63 0
22 1 -64 0
-22 -1 -64 0
22 -1 64 0
-22 1 64 0
65 62 0
65 -11 0
-62 11 -65 0
66 64 0
66 -65 0
-64 65 -66 0
67 -57 0
67 57 0
68 -66 0
68 -67 0
66 67 -68 0
-69 13 0
-69 47 0
-13 -47 69 0
70 -68 0
70 69 0
68 -69 -70 0
71 63 0
71 -70 0
-63 70 -71 0
-61 -71 -72 0
61 71 -72 0
-61 71 72 0
61 -71 72 0
73 60 0
73 -72 0
-60 72 -73 0
-59 73 -74 0
59 -73 -74 0
-59 -73 74 0
59 73 74 0
14 29 -75 0
-14 -29 -75 0
14 -29 75 0
-14 29 75 0
-76 54 0
-76 -48 0
-54 48 76 0
14 -76 -77 0
-14 76 -77 0
14 76 77 0
-14 -76 77 0
10 -31 -78 0
-10 31 -78 0
10 31 78 0
-10 -31 78 0
-12 -27 -79 0
12 27 -79 0
-12 27 79 0
12 -27 79 0
80 -78 0
80 79 0
78 -79 -80 0
-81 77 0
-81 -80 0
-77 80 81 0
82 75 0
82 -81 0
-75 81 -82 0
83 -74 0
83 82 0
74 -82 -83 0
52 -83 -84 0
-52 83 -84 0
52 83 84 0
-52 -83 84 0
-85 -42 0
-85 84 0
42 -84 85 0
1 55 0
-51 -45 49 0
-80 70 -49 0
61 -35 26 0
70 -15 -36 27 0
-55 12 -1 0
-61 35 -3 -34 7 -82 0
22 -73 -82 70 0
-8 7 -54 68 0
24 -64 38 80 -23 0
-12 -10 57 49 63 0
-30 77 0
-46 -3 62 78 18 -11 0
73 -38 29 0
-71 48 -51 -23 37 0
-77 36 -57 0
-35 -18 -26 -61 82 71 0
66 44 0
-82 -45 -62 16 0
20 37 -56 55 0
83 -3 50 0
46 15 -31 32 34 0
-22 33 29 81 0
-73 38 0
-24 -49 -17 21 15 80 0
-83 -49 -47 58 -69 0
-19 27 0
-62 14 27 0
2 -80 0
15 80 -63 -69 -12 -36 0
62 -14 -21 -35 46 0
-59 -37 67 -48 -70 2 0
21 -52 0
-46 -49 -66 84 24 0
67 9 0
85 0
